Traveling Salesman Problem/TSP_generados/Aleatorio1621103370_12.tsp
NAME: Aleatorio1621103370_12.tsp
COMMENT: Randomly generated scenario
TYPE: TSP
DIMENSION: 12
EDGE_WEIGHT_TYPE: ATT
NODE_COORD_SECTION
1 21.17 38.97
2 29.3 3.69
3 6.57 9.57
4 7.5 23.43
5 20.25 46.52
6 33.04 32.09
7 19.94 2.04
8 43.99 30.1
9 26.49 36.28
10 1.88 14.5
11 21.57 37.03
12 38.13 34.01
