Traveling Salesman Problem/TSP_generados/Aleatorio1621103370_12.opt.tour
NAME: Aleatorio1621103370_12.opt.tour
COMMENT: Optimal solution for Aleatorio1621103370_12 (133.625406316112)
TYPE: TOUR
DIMENSION: 12
TOUR_SECTION
1 5 4 10 3 7 2 8 12 6 9 11
-1
EOF
